Converted from ABACUS STRU
1.0
      4.841223516726       0.000000000000      -0.000000000000
      0.000000000000       4.841258203723      -0.000000000000
     -0.000000000000      -0.000000000000       4.841258759323
U N
4 4
Direct
      0.999999999900       0.000000000000       0.000000000000
      0.500000000100       0.500000000000       0.000000000000
      0.500000000100       0.000000000000       0.500000000000
      0.999999999900       0.500000000000       0.500000000000
      0.500000000000       0.000000000000       0.000000000000
      0.000000000000       0.500000000000       0.000000000000
      0.000000000000       0.000000000000       0.500000000000
      0.500000000000       0.500000000000       0.500000000000
